129
100
1
6
7
15
16
4
5
7
10
2
3
3
23
7
14
11
15
24
4
12
13
16
18
4
11
3
9
11
25
5
19
19
3
7
6
8
16
24
1
23
6
13
16
9
24
9
21
6
7
6
17
8
1
15
20
11
11
21
11
20
11
15
21
7
4
4
12
3
19
5
6
21
14
25
11
6
1
1
21
5
23
20
3
7
13
5
7
12
22
25
14
18
25
18
2
4
20
15
5
5
15
10
8
2
8
16
17
9
25
2
3
24
3
11
1
9
15
21
15
8
14
8
11
20
9
18
14
10
17
